PARAMETER_FILE = even/even_complete_graph_new/par/random152.par
PROBLEM_FILE = even/even_complete_graph_new/mat/random152.tsp
Successes/Runs = 0/10
Cost.min = 969, Cost.avg = 969.00, Cost.max = 969
Gap.min = 0.0000%, Gap.avg = 0.0000%, Gap.max = 0.0000%
Trials.min = 1000, Trials.avg = 1000.0, Trials.max = 1000
Time.min = 0.30 sec., Time.avg = 0.36 sec., Time.max = 0.42 sec.
Time.total = 3.73 sec.
